(set-logic QF_LIA)
(declare-fun x0 () Int)
(declare-fun x1 () Int)
(declare-fun x2 () Int)
(declare-fun x3 () Int)
(declare-fun x4 () Int)
(declare-fun x5 () Int)
(declare-fun x6 () Int)
(declare-fun x7 () Int)
(declare-fun x8 () Int)
(declare-fun x9 () Int)
(declare-fun A0 () Bool)
(declare-fun A1 () Bool)
(declare-fun A2 () Bool)
(declare-fun A3 () Bool)
(declare-fun A4 () Bool)
(declare-fun A5 () Bool)
(declare-fun A6 () Bool)
(declare-fun A7 () Bool)
(declare-fun A8 () Bool)
(declare-fun A9 () Bool)
(assert (let ((.def_0 (* 1 x4))) (let ((.def_1 (* 1 x9))) (let ((.def_2 (+ .def_1 .def_0))) (let ((.def_3 (< .def_2 (- 1)))) (let ((.def_4 (* (- 1) x9))) (let ((.def_5 (* 1 x3))) (let ((.def_6 (+ .def_5 .def_4))) (let ((.def_7 (< .def_6 (- 1)))) (let ((.def_8 (or .def_7 .def_3))) (let ((.def_9 (not .def_8))) (let ((.def_10 (* (- 1) x6))) (let ((.def_11 (* (- 1) x0))) (let ((.def_12 (+ .def_11 .def_10))) (let ((.def_13 (< .def_12 1))) (let ((.def_14 (not .def_13))) (let ((.def_15 (not A9))) (let ((.def_16 (and .def_15 .def_14))) (let ((.def_17 (not .def_16))) (let ((.def_18 (or .def_17 .def_9))) (let ((.def_19 (and A3 A4))) (let ((.def_20 (* 1 x8))) (let ((.def_21 (* 1 x6))) (let ((.def_22 (+ .def_21 .def_20))) (let ((.def_23 (< .def_22 1))) (let ((.def_24 (not A1))) (let ((.def_25 (and .def_24 .def_23))) (let ((.def_26 (not .def_25))) (let ((.def_27 (and .def_26 .def_19))) (let ((.def_28 (not .def_27))) (let ((.def_29 (and .def_28 .def_18))) (let ((.def_30 (not .def_29))) (let ((.def_31 (* 1 x0))) (let ((.def_32 (* 1 x2))) (let ((.def_33 (+ .def_32 .def_31))) (let ((.def_34 (< .def_33 1))) (let ((.def_35 (not .def_34))) (let ((.def_36 (* (- 1) x4))) (let ((.def_37 (< .def_36 1))) (let ((.def_38 (and .def_37 .def_35))) (let ((.def_39 (* (- 1) x2))) (let ((.def_40 (+ .def_39 .def_0))) (let ((.def_41 (< .def_40 1))) (let ((.def_42 (not .def_41))) (let ((.def_43 (and .def_42 A3))) (let ((.def_44 (and .def_43 .def_38))) (let ((.def_45 (not .def_44))) (let ((.def_46 (< .def_31 1))) (let ((.def_47 (< .def_32 1))) (let ((.def_48 (or .def_47 .def_46))) (let ((.def_49 (not .def_48))) (let ((.def_50 (* 1 x1))) (let ((.def_51 (< .def_50 1))) (let ((.def_52 (not .def_51))) (let ((.def_53 (not A7))) (let ((.def_54 (or .def_53 .def_52))) (let ((.def_55 (not .def_54))) (let ((.def_56 (or .def_55 .def_49))) (let ((.def_57 (not .def_56))) (let ((.def_58 (= .def_57 .def_45))) (let ((.def_59 (not .def_58))) (let ((.def_60 (and .def_59 .def_30))) (let ((.def_61 (not .def_60))) (let ((.def_62 (* (- 1) x8))) (let ((.def_63 (+ .def_62 .def_36))) (let ((.def_64 (< .def_63 1))) (let ((.def_65 (or .def_24 .def_64))) (let ((.def_66 (and A3 A9))) (let ((.def_67 (or .def_66 .def_65))) (let ((.def_68 (or A8 A5))) (let ((.def_69 (not .def_68))) (let ((.def_70 (< .def_36 (- 1)))) (let ((.def_71 (and A2 .def_70))) (let ((.def_72 (and .def_71 .def_69))) (let ((.def_73 (not .def_72))) (let ((.def_74 (or .def_73 .def_67))) (let ((.def_75 (* 1 x7))) (let ((.def_76 (+ .def_62 .def_75))) (let ((.def_77 (< .def_76 1))) (let ((.def_78 (not .def_77))) (let ((.def_79 (+ .def_75 .def_50))) (let ((.def_80 (< .def_79 (- 1)))) (let ((.def_81 (not .def_80))) (let ((.def_82 (or .def_81 .def_78))) (let ((.def_83 (< .def_62 (- 1)))) (let ((.def_84 (not .def_83))) (let ((.def_85 (and .def_84 .def_15))) (let ((.def_86 (not .def_85))) (let ((.def_87 (or .def_86 .def_82))) (let ((.def_88 (+ .def_75 .def_21))) (let ((.def_89 (< .def_88 (- 1)))) (let ((.def_90 (+ .def_5 .def_36))) (let ((.def_91 (< .def_90 1))) (let ((.def_92 (or .def_91 .def_89))) (let ((.def_93 (not A4))) (let ((.def_94 (or A2 .def_93))) (let ((.def_95 (= .def_94 .def_92))) (let ((.def_96 (and .def_95 .def_87))) (let ((.def_97 (and .def_96 .def_74))) (let ((.def_98 (not .def_97))) (let ((.def_99 (and .def_98 .def_61))) (let ((.def_100 (* (- 1) x7))) (let ((.def_101 (+ .def_100 .def_5))) (let ((.def_102 (< .def_101 1))) (let ((.def_103 (not .def_102))) (let ((.def_104 (and A7 .def_103))) (let ((.def_105 (+ .def_50 .def_100))) (let ((.def_106 (< .def_105 (- 1)))) (let ((.def_107 (+ .def_4 .def_0))) (let ((.def_108 (< .def_107 1))) (let ((.def_109 (and .def_108 .def_106))) (let ((.def_110 (not .def_109))) (let ((.def_111 (= .def_110 .def_104))) (let ((.def_112 (* (- 1) x3))) (let ((.def_113 (< .def_112 (- 1)))) (let ((.def_114 (and .def_15 .def_113))) (let ((.def_115 (not .def_114))) (let ((.def_116 (not A0))) (let ((.def_117 (not A8))) (let ((.def_118 (and .def_117 .def_116))) (let ((.def_119 (or .def_118 .def_115))) (let ((.def_120 (or .def_119 .def_111))) (let ((.def_121 (not .def_120))) (let ((.def_122 (+ .def_5 .def_11))) (let ((.def_123 (< .def_122 (- 1)))) (let ((.def_124 (or .def_123 A0))) (let ((.def_125 (not .def_124))) (let ((.def_126 (or .def_93 .def_93))) (let ((.def_127 (or .def_126 .def_125))) (let ((.def_128 (* 1 x5))) (let ((.def_129 (< .def_128 (- 1)))) (let ((.def_130 (not .def_129))) (let ((.def_131 (or .def_117 .def_130))) (let ((.def_132 (or A3 .def_24))) (let ((.def_133 (or .def_132 .def_131))) (let ((.def_134 (and .def_133 .def_127))) (let ((.def_135 (not .def_134))) (let ((.def_136 (and .def_135 .def_121))) (let ((.def_137 (not .def_136))) (let ((.def_138 (< .def_11 (- 1)))) (let ((.def_139 (not .def_138))) (let ((.def_140 (and .def_139 A5))) (let ((.def_141 (not .def_140))) (let ((.def_142 (< .def_112 1))) (let ((.def_143 (and .def_142 .def_93))) (let ((.def_144 (not .def_143))) (let ((.def_145 (or .def_144 .def_141))) (let ((.def_146 (+ .def_50 .def_39))) (let ((.def_147 (< .def_146 (- 1)))) (let ((.def_148 (or .def_116 .def_147))) (let ((.def_149 (+ .def_128 .def_100))) (let ((.def_150 (< .def_149 (- 1)))) (let ((.def_151 (not .def_150))) (let ((.def_152 (and .def_151 .def_93))) (let ((.def_153 (not .def_152))) (let ((.def_154 (and .def_153 .def_148))) (let ((.def_155 (not .def_154))) (let ((.def_156 (and .def_155 .def_145))) (let ((.def_157 (not .def_156))) (let ((.def_158 (* (- 1) x1))) (let ((.def_159 (< .def_158 1))) (let ((.def_160 (not .def_159))) (let ((.def_161 (* (- 1) x5))) (let ((.def_162 (+ .def_31 .def_161))) (let ((.def_163 (< .def_162 (- 1)))) (let ((.def_164 (or .def_163 .def_160))) (let ((.def_165 (not .def_164))) (let ((.def_166 (+ .def_158 .def_10))) (let ((.def_167 (< .def_166 (- 1)))) (let ((.def_168 (not .def_167))) (let ((.def_169 (< .def_100 1))) (let ((.def_170 (and .def_169 .def_168))) (let ((.def_171 (not .def_170))) (let ((.def_172 (and .def_171 .def_165))) (let ((.def_173 (not A5))) (let ((.def_174 (+ .def_128 .def_1))) (let ((.def_175 (< .def_174 (- 1)))) (let ((.def_176 (not .def_175))) (let ((.def_177 (or .def_176 .def_173))) (let ((.def_178 (not .def_177))) (let ((.def_179 (and A7 A6))) (let ((.def_180 (or .def_179 .def_178))) (let ((.def_181 (not .def_180))) (let ((.def_182 (or .def_181 .def_172))) (let ((.def_183 (= .def_182 .def_157))) (let ((.def_184 (and .def_183 .def_137))) (let ((.def_185 (and .def_184 .def_99))) (let ((.def_186 (not .def_185))) (let ((.def_187 (<= x9 1))) (let ((.def_188 (<= 0 x9))) (let ((.def_189 (<= x8 1))) (let ((.def_190 (<= 0 x8))) (let ((.def_191 (<= x7 1))) (let ((.def_192 (<= 0 x7))) (let ((.def_193 (<= x6 1))) (let ((.def_194 (<= 0 x6))) (let ((.def_195 (<= x5 1))) (let ((.def_196 (<= 0 x5))) (let ((.def_197 (<= x4 1))) (let ((.def_198 (<= 0 x4))) (let ((.def_199 (<= x3 1))) (let ((.def_200 (<= 0 x3))) (let ((.def_201 (<= x2 1))) (let ((.def_202 (<= 0 x2))) (let ((.def_203 (<= x1 1))) (let ((.def_204 (<= 0 x1))) (let ((.def_205 (<= x0 1))) (let ((.def_206 (<= 0 x0))) (let ((.def_207 (and .def_206 .def_205 .def_204 .def_203 .def_202 .def_201 .def_200 .def_199 .def_198 .def_197 .def_196 .def_195 .def_194 .def_193 .def_192 .def_191 .def_190 .def_189 .def_188 .def_187 .def_186))) .def_207)))))))))))))))))))))))))))))))))))))))))))))))))))))))))))))))))))))))))))))))))))))))))))))))))))))))))))))))))))))))))))))))))))))))))))))))))))))))))))))))))))))))))))))))))))))))))))))))))))))))))))))))))
(check-sat)
